\ENCODING=ISO-8859-1
\Problem name: IloCplex

Minimize
 obj: T
Subject To
 c1:   T - 31.420801473588 w_0_1_0 - 10.2281279187168 w_0_2_0
       - 10.4443043604284 w_0_3_0 - 29.1548442943337 w_0_4_0
       - 7.04465240261876 w_0_5_0 - 4.20596246494302 w_0_6_0
       - 7.44030020892335 w_0_7_0 - 16.7195383723257 w_0_8_0
       - 16.9246036171721 w_0_9_0 - 11.2811008861331 w_0_10_0
       - 31.420801473588 w_1_0_0 - 25.9926735548712 w_1_2_0
       - 20.9764971131596 w_1_3_0 - 2.90595717925424 w_1_4_0
       - 32.2254538762068 w_1_5_0 - 27.214839008645 w_1_6_0
       - 23.9805012646646 w_1_7_0 - 15.3412631012623 w_1_8_0
       - 19.2961978564159 w_1_9_0 - 22.5419023597211 w_1_10_0
       - 10.2281279187168 w_2_0_0 - 25.9926735548712 w_2_1_0
       - 9.81617644171159 w_2_3_0 - 23.726716375617 w_2_4_0
       - 6.23278032133555 w_2_5_0 - 6.02216545377377 w_2_6_0
       - 4.89157187235986 w_2_7_0 - 10.8114104536089 w_2_8_0
       - 7.33647569845529 w_2_9_0 - 3.45077119515008 w_2_10_0
       - 10.4443043604284 w_3_0_0 - 20.9764971131596 w_3_1_0
       - 9.81617644171159 w_3_2_0 - 18.7105399339054 w_3_4_0
       - 16.0489567630471 w_3_5_0 - 6.9702668253714 w_3_6_0
       - 4.92460456935173 w_3_7_0 - 6.27523401189733 w_3_8_0
       - 6.48029925674371 w_3_9_0 - 6.3654052465615 w_3_10_0
       - 29.1548442943337 w_4_0_0 - 2.90595717925424 w_4_1_0
       - 23.726716375617 w_4_2_0 - 18.7105399339054 w_4_3_0
       - 29.9594966969525 w_4_5_0 - 24.9488818293907 w_4_6_0
       - 21.7145440854104 w_4_7_0 - 13.075305922008 w_4_8_0
       - 17.0302406771617 w_4_9_0 - 20.2759451804669 w_4_10_0
       - 7.04465240261876 w_5_0_0 - 32.2254538762068 w_5_1_0
       - 6.23278032133555 w_5_2_0 - 16.0489567630471 w_5_3_0
       - 29.9594966969525 w_5_4_0 - 9.07868993767574 w_5_6_0
       - 11.1243521936954 w_5_7_0 - 17.0441907749445 w_5_8_0
       - 12.9292560197909 w_5_9_0 - 9.68355151648564 w_5_10_0
       - 4.20596246494302 w_6_0_0 - 27.214839008645 w_6_1_0
       - 6.02216545377377 w_6_2_0 - 6.9702668253714 w_6_3_0
       - 24.9488818293907 w_6_4_0 - 9.07868993767574 w_6_5_0
       - 3.32626267386637 w_6_7_0 - 12.5135759073827 w_6_8_0
       - 12.7186411522291 w_6_9_0 - 7.0751384211901 w_6_10_0
       - 7.44030020892335 w_7_0_0 - 23.9805012646646 w_7_1_0
       - 4.89157187235986 w_7_2_0 - 4.92460456935173 w_7_3_0
       - 21.7145440854104 w_7_4_0 - 11.1243521936954 w_7_5_0
       - 3.32626267386637 w_7_6_0 - 9.27923816340236 w_7_8_0
       - 9.48430340824874 w_7_9_0 - 3.84080067720978 w_7_10_0
       - 16.7195383723257 w_8_0_0 - 15.3412631012623 w_8_1_0
       - 10.8114104536089 w_8_2_0 - 6.27523401189733 w_8_3_0
       - 13.075305922008 w_8_4_0 - 17.0441907749445 w_8_5_0
       - 12.5135759073827 w_8_6_0 - 9.27923816340236 w_8_7_0
       - 4.11493475515363 w_8_9_0 - 7.36063925845884 w_8_10_0
       - 16.9246036171721 w_9_0_0 - 19.2961978564159 w_9_1_0
       - 7.33647569845529 w_9_2_0 - 6.48029925674371 w_9_3_0
       - 17.0302406771617 w_9_4_0 - 12.9292560197909 w_9_5_0
       - 12.7186411522291 w_9_6_0 - 9.48430340824874 w_9_7_0
       - 4.11493475515363 w_9_8_0 - 5.64350273103896 w_9_10_0
       - 11.2811008861331 w_10_0_0 - 22.5419023597211 w_10_1_0
       - 3.45077119515008 w_10_2_0 - 6.3654052465615 w_10_3_0
       - 20.2759451804669 w_10_4_0 - 9.68355151648564 w_10_5_0
       - 7.0751384211901 w_10_6_0 - 3.84080067720978 w_10_7_0
       - 7.36063925845884 w_10_8_0 - 5.64350273103896 w_10_9_0 >= 0
 c2:   T - 31.420801473588 w_0_1_1 - 10.2281279187168 w_0_2_1
       - 10.4443043604284 w_0_3_1 - 29.1548442943337 w_0_4_1
       - 7.04465240261876 w_0_5_1 - 4.20596246494302 w_0_6_1
       - 7.44030020892335 w_0_7_1 - 16.7195383723257 w_0_8_1
       - 16.9246036171721 w_0_9_1 - 11.2811008861331 w_0_10_1
       - 31.420801473588 w_1_0_1 - 25.9926735548712 w_1_2_1
       - 20.9764971131596 w_1_3_1 - 2.90595717925424 w_1_4_1
       - 32.2254538762068 w_1_5_1 - 27.214839008645 w_1_6_1
       - 23.9805012646646 w_1_7_1 - 15.3412631012623 w_1_8_1
       - 19.2961978564159 w_1_9_1 - 22.5419023597211 w_1_10_1
       - 10.2281279187168 w_2_0_1 - 25.9926735548712 w_2_1_1
       - 9.81617644171159 w_2_3_1 - 23.726716375617 w_2_4_1
       - 6.23278032133555 w_2_5_1 - 6.02216545377377 w_2_6_1
       - 4.89157187235986 w_2_7_1 - 10.8114104536089 w_2_8_1
       - 7.33647569845529 w_2_9_1 - 3.45077119515008 w_2_10_1
       - 10.4443043604284 w_3_0_1 - 20.9764971131596 w_3_1_1
       - 9.81617644171159 w_3_2_1 - 18.7105399339054 w_3_4_1
       - 16.0489567630471 w_3_5_1 - 6.9702668253714 w_3_6_1
       - 4.92460456935173 w_3_7_1 - 6.27523401189733 w_3_8_1
       - 6.48029925674371 w_3_9_1 - 6.3654052465615 w_3_10_1
       - 29.1548442943337 w_4_0_1 - 2.90595717925424 w_4_1_1
       - 23.726716375617 w_4_2_1 - 18.7105399339054 w_4_3_1
       - 29.9594966969525 w_4_5_1 - 24.9488818293907 w_4_6_1
       - 21.7145440854104 w_4_7_1 - 13.075305922008 w_4_8_1
       - 17.0302406771617 w_4_9_1 - 20.2759451804669 w_4_10_1
       - 7.04465240261876 w_5_0_1 - 32.2254538762068 w_5_1_1
       - 6.23278032133555 w_5_2_1 - 16.0489567630471 w_5_3_1
       - 29.9594966969525 w_5_4_1 - 9.07868993767574 w_5_6_1
       - 11.1243521936954 w_5_7_1 - 17.0441907749445 w_5_8_1
       - 12.9292560197909 w_5_9_1 - 9.68355151648564 w_5_10_1
       - 4.20596246494302 w_6_0_1 - 27.214839008645 w_6_1_1
       - 6.02216545377377 w_6_2_1 - 6.9702668253714 w_6_3_1
       - 24.9488818293907 w_6_4_1 - 9.07868993767574 w_6_5_1
       - 3.32626267386637 w_6_7_1 - 12.5135759073827 w_6_8_1
       - 12.7186411522291 w_6_9_1 - 7.0751384211901 w_6_10_1
       - 7.44030020892335 w_7_0_1 - 23.9805012646646 w_7_1_1
       - 4.89157187235986 w_7_2_1 - 4.92460456935173 w_7_3_1
       - 21.7145440854104 w_7_4_1 - 11.1243521936954 w_7_5_1
       - 3.32626267386637 w_7_6_1 - 9.27923816340236 w_7_8_1
       - 9.48430340824874 w_7_9_1 - 3.84080067720978 w_7_10_1
       - 16.7195383723257 w_8_0_1 - 15.3412631012623 w_8_1_1
       - 10.8114104536089 w_8_2_1 - 6.27523401189733 w_8_3_1
       - 13.075305922008 w_8_4_1 - 17.0441907749445 w_8_5_1
       - 12.5135759073827 w_8_6_1 - 9.27923816340236 w_8_7_1
       - 4.11493475515363 w_8_9_1 - 7.36063925845884 w_8_10_1
       - 16.9246036171721 w_9_0_1 - 19.2961978564159 w_9_1_1
       - 7.33647569845529 w_9_2_1 - 6.48029925674371 w_9_3_1
       - 17.0302406771617 w_9_4_1 - 12.9292560197909 w_9_5_1
       - 12.7186411522291 w_9_6_1 - 9.48430340824874 w_9_7_1
       - 4.11493475515363 w_9_8_1 - 5.64350273103896 w_9_10_1
       - 11.2811008861331 w_10_0_1 - 22.5419023597211 w_10_1_1
       - 3.45077119515008 w_10_2_1 - 6.3654052465615 w_10_3_1
       - 20.2759451804669 w_10_4_1 - 9.68355151648564 w_10_5_1
       - 7.0751384211901 w_10_6_1 - 3.84080067720978 w_10_7_1
       - 7.36063925845884 w_10_8_1 - 5.64350273103896 w_10_9_1 >= 0
 c3:   T - 14.4723695226434 y_2_0 - 19.9517178595982 y_3_0
       - 13.6177669711984 y_5_0 - 6.92971932825348 y_6_0
       - 12.3409018619912 y_7_0 - 27.9056871580228 y_8_0
       - 25.5714836019389 y_9_0 - 16.5523876758366 y_10_0 >= 0
 c4:   T - 14.4723695226434 y_2_1 - 19.9517178595982 y_3_1
       - 13.6177669711984 y_5_1 - 6.92971932825348 y_6_1
       - 12.3409018619912 y_7_1 - 27.9056871580228 y_8_1
       - 25.5714836019389 y_9_1 - 16.5523876758366 y_10_1 >= 0
 c5:   z_1  = 1
 c6:   z_4  = 1
 c7:   x_0_0  = 0
 c8:   - w_0_1_0 - w_0_1_1 + x_0_1  = 0
 c9:   - w_0_2_0 - w_0_2_1 + x_0_2  = 0
 c10:  - w_0_3_0 - w_0_3_1 + x_0_3  = 0
 c11:  - w_0_4_0 - w_0_4_1 + x_0_4  = 0
 c12:  - w_0_5_0 - w_0_5_1 + x_0_5  = 0
 c13:  - w_0_6_0 - w_0_6_1 + x_0_6  = 0
 c14:  - w_0_7_0 - w_0_7_1 + x_0_7  = 0
 c15:  - w_0_8_0 - w_0_8_1 + x_0_8  = 0
 c16:  - w_0_9_0 - w_0_9_1 + x_0_9  = 0
 c17:  - w_0_10_0 - w_0_10_1 + x_0_10  = 0
 c18:  - w_1_0_0 - w_1_0_1 + x_1_0  = 0
 c19:  x_1_1  = 0
 c20:  - w_1_2_0 - w_1_2_1 + x_1_2  = 0
 c21:  - w_1_3_0 - w_1_3_1 + x_1_3  = 0
 c22:  - w_1_4_0 - w_1_4_1 + x_1_4  = 0
 c23:  - w_1_5_0 - w_1_5_1 + x_1_5  = 0
 c24:  - w_1_6_0 - w_1_6_1 + x_1_6  = 0
 c25:  - w_1_7_0 - w_1_7_1 + x_1_7  = 0
 c26:  - w_1_8_0 - w_1_8_1 + x_1_8  = 0
 c27:  - w_1_9_0 - w_1_9_1 + x_1_9  = 0
 c28:  - w_1_10_0 - w_1_10_1 + x_1_10  = 0
 c29:  - w_2_0_0 - w_2_0_1 + x_2_0  = 0
 c30:  - w_2_1_0 - w_2_1_1 + x_2_1  = 0
 c31:  x_2_2  = 0
 c32:  - w_2_3_0 - w_2_3_1 + x_2_3  = 0
 c33:  - w_2_4_0 - w_2_4_1 + x_2_4  = 0
 c34:  - w_2_5_0 - w_2_5_1 + x_2_5  = 0
 c35:  - w_2_6_0 - w_2_6_1 + x_2_6  = 0
 c36:  - w_2_7_0 - w_2_7_1 + x_2_7  = 0
 c37:  - w_2_8_0 - w_2_8_1 + x_2_8  = 0
 c38:  - w_2_9_0 - w_2_9_1 + x_2_9  = 0
 c39:  - w_2_10_0 - w_2_10_1 + x_2_10  = 0
 c40:  - w_3_0_0 - w_3_0_1 + x_3_0  = 0
 c41:  - w_3_1_0 - w_3_1_1 + x_3_1  = 0
 c42:  - w_3_2_0 - w_3_2_1 + x_3_2  = 0
 c43:  x_3_3  = 0
 c44:  - w_3_4_0 - w_3_4_1 + x_3_4  = 0
 c45:  - w_3_5_0 - w_3_5_1 + x_3_5  = 0
 c46:  - w_3_6_0 - w_3_6_1 + x_3_6  = 0
 c47:  - w_3_7_0 - w_3_7_1 + x_3_7  = 0
 c48:  - w_3_8_0 - w_3_8_1 + x_3_8  = 0
 c49:  - w_3_9_0 - w_3_9_1 + x_3_9  = 0
 c50:  - w_3_10_0 - w_3_10_1 + x_3_10  = 0
 c51:  - w_4_0_0 - w_4_0_1 + x_4_0  = 0
 c52:  - w_4_1_0 - w_4_1_1 + x_4_1  = 0
 c53:  - w_4_2_0 - w_4_2_1 + x_4_2  = 0
 c54:  - w_4_3_0 - w_4_3_1 + x_4_3  = 0
 c55:  x_4_4  = 0
 c56:  - w_4_5_0 - w_4_5_1 + x_4_5  = 0
 c57:  - w_4_6_0 - w_4_6_1 + x_4_6  = 0
 c58:  - w_4_7_0 - w_4_7_1 + x_4_7  = 0
 c59:  - w_4_8_0 - w_4_8_1 + x_4_8  = 0
 c60:  - w_4_9_0 - w_4_9_1 + x_4_9  = 0
 c61:  - w_4_10_0 - w_4_10_1 + x_4_10  = 0
 c62:  - w_5_0_0 - w_5_0_1 + x_5_0  = 0
 c63:  - w_5_1_0 - w_5_1_1 + x_5_1  = 0
 c64:  - w_5_2_0 - w_5_2_1 + x_5_2  = 0
 c65:  - w_5_3_0 - w_5_3_1 + x_5_3  = 0
 c66:  - w_5_4_0 - w_5_4_1 + x_5_4  = 0
 c67:  x_5_5  = 0
 c68:  - w_5_6_0 - w_5_6_1 + x_5_6  = 0
 c69:  - w_5_7_0 - w_5_7_1 + x_5_7  = 0
 c70:  - w_5_8_0 - w_5_8_1 + x_5_8  = 0
 c71:  - w_5_9_0 - w_5_9_1 + x_5_9  = 0
 c72:  - w_5_10_0 - w_5_10_1 + x_5_10  = 0
 c73:  - w_6_0_0 - w_6_0_1 + x_6_0  = 0
 c74:  - w_6_1_0 - w_6_1_1 + x_6_1  = 0
 c75:  - w_6_2_0 - w_6_2_1 + x_6_2  = 0
 c76:  - w_6_3_0 - w_6_3_1 + x_6_3  = 0
 c77:  - w_6_4_0 - w_6_4_1 + x_6_4  = 0
 c78:  - w_6_5_0 - w_6_5_1 + x_6_5  = 0
 c79:  x_6_6  = 0
 c80:  - w_6_7_0 - w_6_7_1 + x_6_7  = 0
 c81:  - w_6_8_0 - w_6_8_1 + x_6_8  = 0
 c82:  - w_6_9_0 - w_6_9_1 + x_6_9  = 0
 c83:  - w_6_10_0 - w_6_10_1 + x_6_10  = 0
 c84:  - w_7_0_0 - w_7_0_1 + x_7_0  = 0
 c85:  - w_7_1_0 - w_7_1_1 + x_7_1  = 0
 c86:  - w_7_2_0 - w_7_2_1 + x_7_2  = 0
 c87:  - w_7_3_0 - w_7_3_1 + x_7_3  = 0
 c88:  - w_7_4_0 - w_7_4_1 + x_7_4  = 0
 c89:  - w_7_5_0 - w_7_5_1 + x_7_5  = 0
 c90:  - w_7_6_0 - w_7_6_1 + x_7_6  = 0
 c91:  x_7_7  = 0
 c92:  - w_7_8_0 - w_7_8_1 + x_7_8  = 0
 c93:  - w_7_9_0 - w_7_9_1 + x_7_9  = 0
 c94:  - w_7_10_0 - w_7_10_1 + x_7_10  = 0
 c95:  - w_8_0_0 - w_8_0_1 + x_8_0  = 0
 c96:  - w_8_1_0 - w_8_1_1 + x_8_1  = 0
 c97:  - w_8_2_0 - w_8_2_1 + x_8_2  = 0
 c98:  - w_8_3_0 - w_8_3_1 + x_8_3  = 0
 c99:  - w_8_4_0 - w_8_4_1 + x_8_4  = 0
 c100: - w_8_5_0 - w_8_5_1 + x_8_5  = 0
 c101: - w_8_6_0 - w_8_6_1 + x_8_6  = 0
 c102: - w_8_7_0 - w_8_7_1 + x_8_7  = 0
 c103: x_8_8  = 0
 c104: - w_8_9_0 - w_8_9_1 + x_8_9  = 0
 c105: - w_8_10_0 - w_8_10_1 + x_8_10  = 0
 c106: - w_9_0_0 - w_9_0_1 + x_9_0  = 0
 c107: - w_9_1_0 - w_9_1_1 + x_9_1  = 0
 c108: - w_9_2_0 - w_9_2_1 + x_9_2  = 0
 c109: - w_9_3_0 - w_9_3_1 + x_9_3  = 0
 c110: - w_9_4_0 - w_9_4_1 + x_9_4  = 0
 c111: - w_9_5_0 - w_9_5_1 + x_9_5  = 0
 c112: - w_9_6_0 - w_9_6_1 + x_9_6  = 0
 c113: - w_9_7_0 - w_9_7_1 + x_9_7  = 0
 c114: - w_9_8_0 - w_9_8_1 + x_9_8  = 0
 c115: x_9_9  = 0
 c116: - w_9_10_0 - w_9_10_1 + x_9_10  = 0
 c117: - w_10_0_0 - w_10_0_1 + x_10_0  = 0
 c118: - w_10_1_0 - w_10_1_1 + x_10_1  = 0
 c119: - w_10_2_0 - w_10_2_1 + x_10_2  = 0
 c120: - w_10_3_0 - w_10_3_1 + x_10_3  = 0
 c121: - w_10_4_0 - w_10_4_1 + x_10_4  = 0
 c122: - w_10_5_0 - w_10_5_1 + x_10_5  = 0
 c123: - w_10_6_0 - w_10_6_1 + x_10_6  = 0
 c124: - w_10_7_0 - w_10_7_1 + x_10_7  = 0
 c125: - w_10_8_0 - w_10_8_1 + x_10_8  = 0
 c126: - w_10_9_0 - w_10_9_1 + x_10_9  = 0
 c127: x_10_10  = 0
 c128: - z_1 + x_1_0 + x_1_2 + x_1_3 + x_1_4 + x_1_5 + x_1_6 + x_1_7 + x_1_8
       + x_1_9 + x_1_10  = 0
 c129: x_2_0 + x_2_1 + x_2_3 + x_2_4 + x_2_5 + x_2_6 + x_2_7 + x_2_8 + x_2_9
       + x_2_10 - z_2  = 0
 c130: x_3_0 + x_3_1 + x_3_2 + x_3_4 + x_3_5 + x_3_6 + x_3_7 + x_3_8 + x_3_9
       + x_3_10 - z_3  = 0
 c131: - z_4 + x_4_0 + x_4_1 + x_4_2 + x_4_3 + x_4_5 + x_4_6 + x_4_7 + x_4_8
       + x_4_9 + x_4_10  = 0
 c132: x_5_0 + x_5_1 + x_5_2 + x_5_3 + x_5_4 + x_5_6 + x_5_7 + x_5_8 + x_5_9
       + x_5_10 - z_5  = 0
 c133: x_6_0 + x_6_1 + x_6_2 + x_6_3 + x_6_4 + x_6_5 + x_6_7 + x_6_8 + x_6_9
       + x_6_10 - z_6  = 0
 c134: x_7_0 + x_7_1 + x_7_2 + x_7_3 + x_7_4 + x_7_5 + x_7_6 + x_7_8 + x_7_9
       + x_7_10 - z_7  = 0
 c135: x_8_0 + x_8_1 + x_8_2 + x_8_3 + x_8_4 + x_8_5 + x_8_6 + x_8_7 + x_8_9
       + x_8_10 - z_8  = 0
 c136: x_9_0 + x_9_1 + x_9_2 + x_9_3 + x_9_4 + x_9_5 + x_9_6 + x_9_7 + x_9_8
       + x_9_10 - z_9  = 0
 c137: x_10_0 + x_10_1 + x_10_2 + x_10_3 + x_10_4 + x_10_5 + x_10_6 + x_10_7
       + x_10_8 + x_10_9 - z_10  = 0
 c138: y_2_0 + y_2_1 + z_2  = 1
 c139: y_3_0 + y_3_1 + z_3  = 1
 c140: y_5_0 + y_5_1 + z_5  = 1
 c141: y_6_0 + y_6_1 + z_6  = 1
 c142: y_7_0 + y_7_1 + z_7  = 1
 c143: y_8_0 + y_8_1 + z_8  = 1
 c144: y_9_0 + y_9_1 + z_9  = 1
 c145: y_10_0 + y_10_1 + z_10  = 1
 c146: w_0_1_0 + w_0_2_0 + w_0_3_0 + w_0_4_0 + w_0_5_0 + w_0_6_0 + w_0_7_0
       + w_0_8_0 + w_0_9_0 + w_0_10_0 <= 1
 c147: w_0_1_1 + w_0_2_1 + w_0_3_1 + w_0_4_1 + w_0_5_1 + w_0_6_1 + w_0_7_1
       + w_0_8_1 + w_0_9_1 + w_0_10_1 <= 1
 c148: - w_0_1_0 + w_1_0_0 + w_1_2_0 + w_1_3_0 + w_1_4_0 + w_1_5_0 + w_1_6_0
       + w_1_7_0 + w_1_8_0 + w_1_9_0 + w_1_10_0 - w_2_1_0 - w_3_1_0 - w_4_1_0
       - w_5_1_0 - w_6_1_0 - w_7_1_0 - w_8_1_0 - w_9_1_0 - w_10_1_0  = 0
 c149: - w_0_2_0 - w_1_2_0 + w_2_0_0 + w_2_1_0 + w_2_3_0 + w_2_4_0 + w_2_5_0
       + w_2_6_0 + w_2_7_0 + w_2_8_0 + w_2_9_0 + w_2_10_0 - w_3_2_0 - w_4_2_0
       - w_5_2_0 - w_6_2_0 - w_7_2_0 - w_8_2_0 - w_9_2_0 - w_10_2_0  = 0
 c150: - w_0_3_0 - w_1_3_0 - w_2_3_0 + w_3_0_0 + w_3_1_0 + w_3_2_0 + w_3_4_0
       + w_3_5_0 + w_3_6_0 + w_3_7_0 + w_3_8_0 + w_3_9_0 + w_3_10_0 - w_4_3_0
       - w_5_3_0 - w_6_3_0 - w_7_3_0 - w_8_3_0 - w_9_3_0 - w_10_3_0  = 0
 c151: - w_0_4_0 - w_1_4_0 - w_2_4_0 - w_3_4_0 + w_4_0_0 + w_4_1_0 + w_4_2_0
       + w_4_3_0 + w_4_5_0 + w_4_6_0 + w_4_7_0 + w_4_8_0 + w_4_9_0 + w_4_10_0
       - w_5_4_0 - w_6_4_0 - w_7_4_0 - w_8_4_0 - w_9_4_0 - w_10_4_0  = 0
 c152: - w_0_5_0 - w_1_5_0 - w_2_5_0 - w_3_5_0 - w_4_5_0 + w_5_0_0 + w_5_1_0
       + w_5_2_0 + w_5_3_0 + w_5_4_0 + w_5_6_0 + w_5_7_0 + w_5_8_0 + w_5_9_0
       + w_5_10_0 - w_6_5_0 - w_7_5_0 - w_8_5_0 - w_9_5_0 - w_10_5_0  = 0
 c153: - w_0_6_0 - w_1_6_0 - w_2_6_0 - w_3_6_0 - w_4_6_0 - w_5_6_0 + w_6_0_0
       + w_6_1_0 + w_6_2_0 + w_6_3_0 + w_6_4_0 + w_6_5_0 + w_6_7_0 + w_6_8_0
       + w_6_9_0 + w_6_10_0 - w_7_6_0 - w_8_6_0 - w_9_6_0 - w_10_6_0  = 0
 c154: - w_0_7_0 - w_1_7_0 - w_2_7_0 - w_3_7_0 - w_4_7_0 - w_5_7_0 - w_6_7_0
       + w_7_0_0 + w_7_1_0 + w_7_2_0 + w_7_3_0 + w_7_4_0 + w_7_5_0 + w_7_6_0
       + w_7_8_0 + w_7_9_0 + w_7_10_0 - w_8_7_0 - w_9_7_0 - w_10_7_0  = 0
 c155: - w_0_8_0 - w_1_8_0 - w_2_8_0 - w_3_8_0 - w_4_8_0 - w_5_8_0 - w_6_8_0
       - w_7_8_0 + w_8_0_0 + w_8_1_0 + w_8_2_0 + w_8_3_0 + w_8_4_0 + w_8_5_0
       + w_8_6_0 + w_8_7_0 + w_8_9_0 + w_8_10_0 - w_9_8_0 - w_10_8_0  = 0
 c156: - w_0_9_0 - w_1_9_0 - w_2_9_0 - w_3_9_0 - w_4_9_0 - w_5_9_0 - w_6_9_0
       - w_7_9_0 - w_8_9_0 + w_9_0_0 + w_9_1_0 + w_9_2_0 + w_9_3_0 + w_9_4_0
       + w_9_5_0 + w_9_6_0 + w_9_7_0 + w_9_8_0 + w_9_10_0 - w_10_9_0  = 0
 c157: - w_0_10_0 - w_1_10_0 - w_2_10_0 - w_3_10_0 - w_4_10_0 - w_5_10_0
       - w_6_10_0 - w_7_10_0 - w_8_10_0 - w_9_10_0 + w_10_0_0 + w_10_1_0
       + w_10_2_0 + w_10_3_0 + w_10_4_0 + w_10_5_0 + w_10_6_0 + w_10_7_0
       + w_10_8_0 + w_10_9_0  = 0
 c158: - w_0_1_1 + w_1_0_1 + w_1_2_1 + w_1_3_1 + w_1_4_1 + w_1_5_1 + w_1_6_1
       + w_1_7_1 + w_1_8_1 + w_1_9_1 + w_1_10_1 - w_2_1_1 - w_3_1_1 - w_4_1_1
       - w_5_1_1 - w_6_1_1 - w_7_1_1 - w_8_1_1 - w_9_1_1 - w_10_1_1  = 0
 c159: - w_0_2_1 - w_1_2_1 + w_2_0_1 + w_2_1_1 + w_2_3_1 + w_2_4_1 + w_2_5_1
       + w_2_6_1 + w_2_7_1 + w_2_8_1 + w_2_9_1 + w_2_10_1 - w_3_2_1 - w_4_2_1
       - w_5_2_1 - w_6_2_1 - w_7_2_1 - w_8_2_1 - w_9_2_1 - w_10_2_1  = 0
 c160: - w_0_3_1 - w_1_3_1 - w_2_3_1 + w_3_0_1 + w_3_1_1 + w_3_2_1 + w_3_4_1
       + w_3_5_1 + w_3_6_1 + w_3_7_1 + w_3_8_1 + w_3_9_1 + w_3_10_1 - w_4_3_1
       - w_5_3_1 - w_6_3_1 - w_7_3_1 - w_8_3_1 - w_9_3_1 - w_10_3_1  = 0
 c161: - w_0_4_1 - w_1_4_1 - w_2_4_1 - w_3_4_1 + w_4_0_1 + w_4_1_1 + w_4_2_1
       + w_4_3_1 + w_4_5_1 + w_4_6_1 + w_4_7_1 + w_4_8_1 + w_4_9_1 + w_4_10_1
       - w_5_4_1 - w_6_4_1 - w_7_4_1 - w_8_4_1 - w_9_4_1 - w_10_4_1  = 0
 c162: - w_0_5_1 - w_1_5_1 - w_2_5_1 - w_3_5_1 - w_4_5_1 + w_5_0_1 + w_5_1_1
       + w_5_2_1 + w_5_3_1 + w_5_4_1 + w_5_6_1 + w_5_7_1 + w_5_8_1 + w_5_9_1
       + w_5_10_1 - w_6_5_1 - w_7_5_1 - w_8_5_1 - w_9_5_1 - w_10_5_1  = 0
 c163: - w_0_6_1 - w_1_6_1 - w_2_6_1 - w_3_6_1 - w_4_6_1 - w_5_6_1 + w_6_0_1
       + w_6_1_1 + w_6_2_1 + w_6_3_1 + w_6_4_1 + w_6_5_1 + w_6_7_1 + w_6_8_1
       + w_6_9_1 + w_6_10_1 - w_7_6_1 - w_8_6_1 - w_9_6_1 - w_10_6_1  = 0
 c164: - w_0_7_1 - w_1_7_1 - w_2_7_1 - w_3_7_1 - w_4_7_1 - w_5_7_1 - w_6_7_1
       + w_7_0_1 + w_7_1_1 + w_7_2_1 + w_7_3_1 + w_7_4_1 + w_7_5_1 + w_7_6_1
       + w_7_8_1 + w_7_9_1 + w_7_10_1 - w_8_7_1 - w_9_7_1 - w_10_7_1  = 0
 c165: - w_0_8_1 - w_1_8_1 - w_2_8_1 - w_3_8_1 - w_4_8_1 - w_5_8_1 - w_6_8_1
       - w_7_8_1 + w_8_0_1 + w_8_1_1 + w_8_2_1 + w_8_3_1 + w_8_4_1 + w_8_5_1
       + w_8_6_1 + w_8_7_1 + w_8_9_1 + w_8_10_1 - w_9_8_1 - w_10_8_1  = 0
 c166: - w_0_9_1 - w_1_9_1 - w_2_9_1 - w_3_9_1 - w_4_9_1 - w_5_9_1 - w_6_9_1
       - w_7_9_1 - w_8_9_1 + w_9_0_1 + w_9_1_1 + w_9_2_1 + w_9_3_1 + w_9_4_1
       + w_9_5_1 + w_9_6_1 + w_9_7_1 + w_9_8_1 + w_9_10_1 - w_10_9_1  = 0
 c167: - w_0_10_1 - w_1_10_1 - w_2_10_1 - w_3_10_1 - w_4_10_1 - w_5_10_1
       - w_6_10_1 - w_7_10_1 - w_8_10_1 - w_9_10_1 + w_10_0_1 + w_10_1_1
       + w_10_2_1 + w_10_3_1 + w_10_4_1 + w_10_5_1 + w_10_6_1 + w_10_7_1
       + w_10_8_1 + w_10_9_1  = 0
Bounds
 0 <= w_0_1_0 <= 1
 0 <= w_0_2_0 <= 1
 0 <= w_0_3_0 <= 1
 0 <= w_0_4_0 <= 1
 0 <= w_0_5_0 <= 1
 0 <= w_0_6_0 <= 1
 0 <= w_0_7_0 <= 1
 0 <= w_0_8_0 <= 1
 0 <= w_0_9_0 <= 1
 0 <= w_0_10_0 <= 1
 0 <= w_1_0_0 <= 1
 0 <= w_1_2_0 <= 1
 0 <= w_1_3_0 <= 1
 0 <= w_1_4_0 <= 1
 0 <= w_1_5_0 <= 1
 0 <= w_1_6_0 <= 1
 0 <= w_1_7_0 <= 1
 0 <= w_1_8_0 <= 1
 0 <= w_1_9_0 <= 1
 0 <= w_1_10_0 <= 1
 0 <= w_2_0_0 <= 1
 0 <= w_2_1_0 <= 1
 0 <= w_2_3_0 <= 1
 0 <= w_2_4_0 <= 1
 0 <= w_2_5_0 <= 1
 0 <= w_2_6_0 <= 1
 0 <= w_2_7_0 <= 1
 0 <= w_2_8_0 <= 1
 0 <= w_2_9_0 <= 1
 0 <= w_2_10_0 <= 1
 0 <= w_3_0_0 <= 1
 0 <= w_3_1_0 <= 1
 0 <= w_3_2_0 <= 1
 0 <= w_3_4_0 <= 1
 0 <= w_3_5_0 <= 1
 0 <= w_3_6_0 <= 1
 0 <= w_3_7_0 <= 1
 0 <= w_3_8_0 <= 1
 0 <= w_3_9_0 <= 1
 0 <= w_3_10_0 <= 1
 0 <= w_4_0_0 <= 1
 0 <= w_4_1_0 <= 1
 0 <= w_4_2_0 <= 1
 0 <= w_4_3_0 <= 1
 0 <= w_4_5_0 <= 1
 0 <= w_4_6_0 <= 1
 0 <= w_4_7_0 <= 1
 0 <= w_4_8_0 <= 1
 0 <= w_4_9_0 <= 1
 0 <= w_4_10_0 <= 1
 0 <= w_5_0_0 <= 1
 0 <= w_5_1_0 <= 1
 0 <= w_5_2_0 <= 1
 0 <= w_5_3_0 <= 1
 0 <= w_5_4_0 <= 1
 0 <= w_5_6_0 <= 1
 0 <= w_5_7_0 <= 1
 0 <= w_5_8_0 <= 1
 0 <= w_5_9_0 <= 1
 0 <= w_5_10_0 <= 1
 0 <= w_6_0_0 <= 1
 0 <= w_6_1_0 <= 1
 0 <= w_6_2_0 <= 1
 0 <= w_6_3_0 <= 1
 0 <= w_6_4_0 <= 1
 0 <= w_6_5_0 <= 1
 0 <= w_6_7_0 <= 1
 0 <= w_6_8_0 <= 1
 0 <= w_6_9_0 <= 1
 0 <= w_6_10_0 <= 1
 0 <= w_7_0_0 <= 1
 0 <= w_7_1_0 <= 1
 0 <= w_7_2_0 <= 1
 0 <= w_7_3_0 <= 1
 0 <= w_7_4_0 <= 1
 0 <= w_7_5_0 <= 1
 0 <= w_7_6_0 <= 1
 0 <= w_7_8_0 <= 1
 0 <= w_7_9_0 <= 1
 0 <= w_7_10_0 <= 1
 0 <= w_8_0_0 <= 1
 0 <= w_8_1_0 <= 1
 0 <= w_8_2_0 <= 1
 0 <= w_8_3_0 <= 1
 0 <= w_8_4_0 <= 1
 0 <= w_8_5_0 <= 1
 0 <= w_8_6_0 <= 1
 0 <= w_8_7_0 <= 1
 0 <= w_8_9_0 <= 1
 0 <= w_8_10_0 <= 1
 0 <= w_9_0_0 <= 1
 0 <= w_9_1_0 <= 1
 0 <= w_9_2_0 <= 1
 0 <= w_9_3_0 <= 1
 0 <= w_9_4_0 <= 1
 0 <= w_9_5_0 <= 1
 0 <= w_9_6_0 <= 1
 0 <= w_9_7_0 <= 1
 0 <= w_9_8_0 <= 1
 0 <= w_9_10_0 <= 1
 0 <= w_10_0_0 <= 1
 0 <= w_10_1_0 <= 1
 0 <= w_10_2_0 <= 1
 0 <= w_10_3_0 <= 1
 0 <= w_10_4_0 <= 1
 0 <= w_10_5_0 <= 1
 0 <= w_10_6_0 <= 1
 0 <= w_10_7_0 <= 1
 0 <= w_10_8_0 <= 1
 0 <= w_10_9_0 <= 1
 0 <= w_0_1_1 <= 1
 0 <= w_0_2_1 <= 1
 0 <= w_0_3_1 <= 1
 0 <= w_0_4_1 <= 1
 0 <= w_0_5_1 <= 1
 0 <= w_0_6_1 <= 1
 0 <= w_0_7_1 <= 1
 0 <= w_0_8_1 <= 1
 0 <= w_0_9_1 <= 1
 0 <= w_0_10_1 <= 1
 0 <= w_1_0_1 <= 1
 0 <= w_1_2_1 <= 1
 0 <= w_1_3_1 <= 1
 0 <= w_1_4_1 <= 1
 0 <= w_1_5_1 <= 1
 0 <= w_1_6_1 <= 1
 0 <= w_1_7_1 <= 1
 0 <= w_1_8_1 <= 1
 0 <= w_1_9_1 <= 1
 0 <= w_1_10_1 <= 1
 0 <= w_2_0_1 <= 1
 0 <= w_2_1_1 <= 1
 0 <= w_2_3_1 <= 1
 0 <= w_2_4_1 <= 1
 0 <= w_2_5_1 <= 1
 0 <= w_2_6_1 <= 1
 0 <= w_2_7_1 <= 1
 0 <= w_2_8_1 <= 1
 0 <= w_2_9_1 <= 1
 0 <= w_2_10_1 <= 1
 0 <= w_3_0_1 <= 1
 0 <= w_3_1_1 <= 1
 0 <= w_3_2_1 <= 1
 0 <= w_3_4_1 <= 1
 0 <= w_3_5_1 <= 1
 0 <= w_3_6_1 <= 1
 0 <= w_3_7_1 <= 1
 0 <= w_3_8_1 <= 1
 0 <= w_3_9_1 <= 1
 0 <= w_3_10_1 <= 1
 0 <= w_4_0_1 <= 1
 0 <= w_4_1_1 <= 1
 0 <= w_4_2_1 <= 1
 0 <= w_4_3_1 <= 1
 0 <= w_4_5_1 <= 1
 0 <= w_4_6_1 <= 1
 0 <= w_4_7_1 <= 1
 0 <= w_4_8_1 <= 1
 0 <= w_4_9_1 <= 1
 0 <= w_4_10_1 <= 1
 0 <= w_5_0_1 <= 1
 0 <= w_5_1_1 <= 1
 0 <= w_5_2_1 <= 1
 0 <= w_5_3_1 <= 1
 0 <= w_5_4_1 <= 1
 0 <= w_5_6_1 <= 1
 0 <= w_5_7_1 <= 1
 0 <= w_5_8_1 <= 1
 0 <= w_5_9_1 <= 1
 0 <= w_5_10_1 <= 1
 0 <= w_6_0_1 <= 1
 0 <= w_6_1_1 <= 1
 0 <= w_6_2_1 <= 1
 0 <= w_6_3_1 <= 1
 0 <= w_6_4_1 <= 1
 0 <= w_6_5_1 <= 1
 0 <= w_6_7_1 <= 1
 0 <= w_6_8_1 <= 1
 0 <= w_6_9_1 <= 1
 0 <= w_6_10_1 <= 1
 0 <= w_7_0_1 <= 1
 0 <= w_7_1_1 <= 1
 0 <= w_7_2_1 <= 1
 0 <= w_7_3_1 <= 1
 0 <= w_7_4_1 <= 1
 0 <= w_7_5_1 <= 1
 0 <= w_7_6_1 <= 1
 0 <= w_7_8_1 <= 1
 0 <= w_7_9_1 <= 1
 0 <= w_7_10_1 <= 1
 0 <= w_8_0_1 <= 1
 0 <= w_8_1_1 <= 1
 0 <= w_8_2_1 <= 1
 0 <= w_8_3_1 <= 1
 0 <= w_8_4_1 <= 1
 0 <= w_8_5_1 <= 1
 0 <= w_8_6_1 <= 1
 0 <= w_8_7_1 <= 1
 0 <= w_8_9_1 <= 1
 0 <= w_8_10_1 <= 1
 0 <= w_9_0_1 <= 1
 0 <= w_9_1_1 <= 1
 0 <= w_9_2_1 <= 1
 0 <= w_9_3_1 <= 1
 0 <= w_9_4_1 <= 1
 0 <= w_9_5_1 <= 1
 0 <= w_9_6_1 <= 1
 0 <= w_9_7_1 <= 1
 0 <= w_9_8_1 <= 1
 0 <= w_9_10_1 <= 1
 0 <= w_10_0_1 <= 1
 0 <= w_10_1_1 <= 1
 0 <= w_10_2_1 <= 1
 0 <= w_10_3_1 <= 1
 0 <= w_10_4_1 <= 1
 0 <= w_10_5_1 <= 1
 0 <= w_10_6_1 <= 1
 0 <= w_10_7_1 <= 1
 0 <= w_10_8_1 <= 1
 0 <= w_10_9_1 <= 1
 0 <= y_2_0 <= 1
 0 <= y_3_0 <= 1
 0 <= y_5_0 <= 1
 0 <= y_6_0 <= 1
 0 <= y_7_0 <= 1
 0 <= y_8_0 <= 1
 0 <= y_9_0 <= 1
 0 <= y_10_0 <= 1
 0 <= y_2_1 <= 1
 0 <= y_3_1 <= 1
 0 <= y_5_1 <= 1
 0 <= y_6_1 <= 1
 0 <= y_7_1 <= 1
 0 <= y_8_1 <= 1
 0 <= y_9_1 <= 1
 0 <= y_10_1 <= 1
 0 <= z_1 <= 1
 0 <= z_4 <= 1
 0 <= x_0_0 <= 1
 0 <= x_0_1 <= 1
 0 <= x_0_2 <= 1
 0 <= x_0_3 <= 1
 0 <= x_0_4 <= 1
 0 <= x_0_5 <= 1
 0 <= x_0_6 <= 1
 0 <= x_0_7 <= 1
 0 <= x_0_8 <= 1
 0 <= x_0_9 <= 1
 0 <= x_0_10 <= 1
 0 <= x_1_0 <= 1
 0 <= x_1_1 <= 1
 0 <= x_1_2 <= 1
 0 <= x_1_3 <= 1
 0 <= x_1_4 <= 1
 0 <= x_1_5 <= 1
 0 <= x_1_6 <= 1
 0 <= x_1_7 <= 1
 0 <= x_1_8 <= 1
 0 <= x_1_9 <= 1
 0 <= x_1_10 <= 1
 0 <= x_2_0 <= 1
 0 <= x_2_1 <= 1
 0 <= x_2_2 <= 1
 0 <= x_2_3 <= 1
 0 <= x_2_4 <= 1
 0 <= x_2_5 <= 1
 0 <= x_2_6 <= 1
 0 <= x_2_7 <= 1
 0 <= x_2_8 <= 1
 0 <= x_2_9 <= 1
 0 <= x_2_10 <= 1
 0 <= x_3_0 <= 1
 0 <= x_3_1 <= 1
 0 <= x_3_2 <= 1
 0 <= x_3_3 <= 1
 0 <= x_3_4 <= 1
 0 <= x_3_5 <= 1
 0 <= x_3_6 <= 1
 0 <= x_3_7 <= 1
 0 <= x_3_8 <= 1
 0 <= x_3_9 <= 1
 0 <= x_3_10 <= 1
 0 <= x_4_0 <= 1
 0 <= x_4_1 <= 1
 0 <= x_4_2 <= 1
 0 <= x_4_3 <= 1
 0 <= x_4_4 <= 1
 0 <= x_4_5 <= 1
 0 <= x_4_6 <= 1
 0 <= x_4_7 <= 1
 0 <= x_4_8 <= 1
 0 <= x_4_9 <= 1
 0 <= x_4_10 <= 1
 0 <= x_5_0 <= 1
 0 <= x_5_1 <= 1
 0 <= x_5_2 <= 1
 0 <= x_5_3 <= 1
 0 <= x_5_4 <= 1
 0 <= x_5_5 <= 1
 0 <= x_5_6 <= 1
 0 <= x_5_7 <= 1
 0 <= x_5_8 <= 1
 0 <= x_5_9 <= 1
 0 <= x_5_10 <= 1
 0 <= x_6_0 <= 1
 0 <= x_6_1 <= 1
 0 <= x_6_2 <= 1
 0 <= x_6_3 <= 1
 0 <= x_6_4 <= 1
 0 <= x_6_5 <= 1
 0 <= x_6_6 <= 1
 0 <= x_6_7 <= 1
 0 <= x_6_8 <= 1
 0 <= x_6_9 <= 1
 0 <= x_6_10 <= 1
 0 <= x_7_0 <= 1
 0 <= x_7_1 <= 1
 0 <= x_7_2 <= 1
 0 <= x_7_3 <= 1
 0 <= x_7_4 <= 1
 0 <= x_7_5 <= 1
 0 <= x_7_6 <= 1
 0 <= x_7_7 <= 1
 0 <= x_7_8 <= 1
 0 <= x_7_9 <= 1
 0 <= x_7_10 <= 1
 0 <= x_8_0 <= 1
 0 <= x_8_1 <= 1
 0 <= x_8_2 <= 1
 0 <= x_8_3 <= 1
 0 <= x_8_4 <= 1
 0 <= x_8_5 <= 1
 0 <= x_8_6 <= 1
 0 <= x_8_7 <= 1
 0 <= x_8_8 <= 1
 0 <= x_8_9 <= 1
 0 <= x_8_10 <= 1
 0 <= x_9_0 <= 1
 0 <= x_9_1 <= 1
 0 <= x_9_2 <= 1
 0 <= x_9_3 <= 1
 0 <= x_9_4 <= 1
 0 <= x_9_5 <= 1
 0 <= x_9_6 <= 1
 0 <= x_9_7 <= 1
 0 <= x_9_8 <= 1
 0 <= x_9_9 <= 1
 0 <= x_9_10 <= 1
 0 <= x_10_0 <= 1
 0 <= x_10_1 <= 1
 0 <= x_10_2 <= 1
 0 <= x_10_3 <= 1
 0 <= x_10_4 <= 1
 0 <= x_10_5 <= 1
 0 <= x_10_6 <= 1
 0 <= x_10_7 <= 1
 0 <= x_10_8 <= 1
 0 <= x_10_9 <= 1
 0 <= x_10_10 <= 1
 0 <= z_2 <= 1
 0 <= z_3 <= 1
 0 <= z_5 <= 1
 0 <= z_6 <= 1
 0 <= z_7 <= 1
 0 <= z_8 <= 1
 0 <= z_9 <= 1
 0 <= z_10 <= 1
Binaries
 w_0_1_0  w_0_2_0  w_0_3_0  w_0_4_0  w_0_5_0  w_0_6_0  w_0_7_0  w_0_8_0 
 w_0_9_0  w_0_10_0  w_1_0_0  w_1_2_0  w_1_3_0  w_1_4_0  w_1_5_0  w_1_6_0 
 w_1_7_0  w_1_8_0  w_1_9_0  w_1_10_0  w_2_0_0  w_2_1_0  w_2_3_0  w_2_4_0 
 w_2_5_0  w_2_6_0  w_2_7_0  w_2_8_0  w_2_9_0  w_2_10_0  w_3_0_0  w_3_1_0 
 w_3_2_0  w_3_4_0  w_3_5_0  w_3_6_0  w_3_7_0  w_3_8_0  w_3_9_0  w_3_10_0 
 w_4_0_0  w_4_1_0  w_4_2_0  w_4_3_0  w_4_5_0  w_4_6_0  w_4_7_0  w_4_8_0 
 w_4_9_0  w_4_10_0  w_5_0_0  w_5_1_0  w_5_2_0  w_5_3_0  w_5_4_0  w_5_6_0 
 w_5_7_0  w_5_8_0  w_5_9_0  w_5_10_0  w_6_0_0  w_6_1_0  w_6_2_0  w_6_3_0 
 w_6_4_0  w_6_5_0  w_6_7_0  w_6_8_0  w_6_9_0  w_6_10_0  w_7_0_0  w_7_1_0 
 w_7_2_0  w_7_3_0  w_7_4_0  w_7_5_0  w_7_6_0  w_7_8_0  w_7_9_0  w_7_10_0 
 w_8_0_0  w_8_1_0  w_8_2_0  w_8_3_0  w_8_4_0  w_8_5_0  w_8_6_0  w_8_7_0 
 w_8_9_0  w_8_10_0  w_9_0_0  w_9_1_0  w_9_2_0  w_9_3_0  w_9_4_0  w_9_5_0 
 w_9_6_0  w_9_7_0  w_9_8_0  w_9_10_0  w_10_0_0  w_10_1_0  w_10_2_0  w_10_3_0 
 w_10_4_0  w_10_5_0  w_10_6_0  w_10_7_0  w_10_8_0  w_10_9_0  w_0_1_1  w_0_2_1 
 w_0_3_1  w_0_4_1  w_0_5_1  w_0_6_1  w_0_7_1  w_0_8_1  w_0_9_1  w_0_10_1 
 w_1_0_1  w_1_2_1  w_1_3_1  w_1_4_1  w_1_5_1  w_1_6_1  w_1_7_1  w_1_8_1 
 w_1_9_1  w_1_10_1  w_2_0_1  w_2_1_1  w_2_3_1  w_2_4_1  w_2_5_1  w_2_6_1 
 w_2_7_1  w_2_8_1  w_2_9_1  w_2_10_1  w_3_0_1  w_3_1_1  w_3_2_1  w_3_4_1 
 w_3_5_1  w_3_6_1  w_3_7_1  w_3_8_1  w_3_9_1  w_3_10_1  w_4_0_1  w_4_1_1 
 w_4_2_1  w_4_3_1  w_4_5_1  w_4_6_1  w_4_7_1  w_4_8_1  w_4_9_1  w_4_10_1 
 w_5_0_1  w_5_1_1  w_5_2_1  w_5_3_1  w_5_4_1  w_5_6_1  w_5_7_1  w_5_8_1 
 w_5_9_1  w_5_10_1  w_6_0_1  w_6_1_1  w_6_2_1  w_6_3_1  w_6_4_1  w_6_5_1 
 w_6_7_1  w_6_8_1  w_6_9_1  w_6_10_1  w_7_0_1  w_7_1_1  w_7_2_1  w_7_3_1 
 w_7_4_1  w_7_5_1  w_7_6_1  w_7_8_1  w_7_9_1  w_7_10_1  w_8_0_1  w_8_1_1 
 w_8_2_1  w_8_3_1  w_8_4_1  w_8_5_1  w_8_6_1  w_8_7_1  w_8_9_1  w_8_10_1 
 w_9_0_1  w_9_1_1  w_9_2_1  w_9_3_1  w_9_4_1  w_9_5_1  w_9_6_1  w_9_7_1 
 w_9_8_1  w_9_10_1  w_10_0_1  w_10_1_1  w_10_2_1  w_10_3_1  w_10_4_1  w_10_5_1 
 w_10_6_1  w_10_7_1  w_10_8_1  w_10_9_1  y_2_0  y_3_0  y_5_0  y_6_0  y_7_0 
 y_8_0  y_9_0  y_10_0  y_2_1  y_3_1  y_5_1  y_6_1  y_7_1  y_8_1  y_9_1  y_10_1 
 z_1  z_4  x_0_0  x_0_1  x_0_2  x_0_3  x_0_4  x_0_5  x_0_6  x_0_7  x_0_8 
 x_0_9  x_0_10  x_1_0  x_1_1  x_1_2  x_1_3  x_1_4  x_1_5  x_1_6  x_1_7  x_1_8 
 x_1_9  x_1_10  x_2_0  x_2_1  x_2_2  x_2_3  x_2_4  x_2_5  x_2_6  x_2_7  x_2_8 
 x_2_9  x_2_10  x_3_0  x_3_1  x_3_2  x_3_3  x_3_4  x_3_5  x_3_6  x_3_7  x_3_8 
 x_3_9  x_3_10  x_4_0  x_4_1  x_4_2  x_4_3  x_4_4  x_4_5  x_4_6  x_4_7  x_4_8 
 x_4_9  x_4_10  x_5_0  x_5_1  x_5_2  x_5_3  x_5_4  x_5_5  x_5_6  x_5_7  x_5_8 
 x_5_9  x_5_10  x_6_0  x_6_1  x_6_2  x_6_3  x_6_4  x_6_5  x_6_6  x_6_7  x_6_8 
 x_6_9  x_6_10  x_7_0  x_7_1  x_7_2  x_7_3  x_7_4  x_7_5  x_7_6  x_7_7  x_7_8 
 x_7_9  x_7_10  x_8_0  x_8_1  x_8_2  x_8_3  x_8_4  x_8_5  x_8_6  x_8_7  x_8_8 
 x_8_9  x_8_10  x_9_0  x_9_1  x_9_2  x_9_3  x_9_4  x_9_5  x_9_6  x_9_7  x_9_8 
 x_9_9  x_9_10  x_10_0  x_10_1  x_10_2  x_10_3  x_10_4  x_10_5  x_10_6  x_10_7 
 x_10_8  x_10_9  x_10_10  z_2  z_3  z_5  z_6  z_7  z_8  z_9  z_10 
End
